6393.16 341928
132167 210103
369866 6393.16
132145 215405
327469 53873.4
113863 234260
337779 18028.6
64182.3 317012
326137 62449.9
260625 117582
223990 137273
109009 275627
123216 226832
264080 117361
121229 229611
199185 151981
216999 148413
125268 225933
37347.2 331378
177928 181893
189999 175155
234741 127247
128752 223533
172050 196574
338700 13800
129949 222731
160334 206424
127186 225586
130384 222571
96273.9 283611
176772 194068
278497 96930.4
17622.3 336239
162237 204946
96596 283011
249935 123633
106153 277521
281887 80194.8
145705 208692
333941 44096
113610 257356
224460 130384
105518 281054
75169.2 295162
223463 140075
159445 207717
278795 88649
265051 98246.9
256513 120215
231278 127934
110942 266214
358415 12396.1
288883 68352.4
222321 145981
172331 194611
73362.8 295538
85462 285926
246059 124190
